c array.sh: path:     /data/qbf/qbf20/PCNF/fpu-01Xh-error02-nonuniform-depth-18.qdimacs
c array.sh: name:     fpu-01Xh-error02-nonuniform-depth-18
c array.sh: task:     52
c array.sh: host:     c3n26
c array.sh: uname:    Linux c3n26 4.15.0-135-generic #139-Ubuntu SMP Mon Jan 18 17:38:24 UTC 2021 x86_64 x86_64 x86_64 GNU/Linux
c array.sh: start:    Thu Feb 18 09:53:05 CET 2021
c array.sh: noturbo:  1
c array.sh: governor: 32 performance
c array.sh: tmp:      1%
c array.sh: unzipped: /tmp/local-unzipped-18838260-52-fpu-01Xh-error02-nonuniform-depth-18.cnf
*** qbfcert: using tmp directory:
*** qbfcert:   /tmp
trace-size: 40193688
solving-res 20
proof-size: 4081582
cert-size: 3343818
cert-header: aag 488490 485558 0 0 0
merged-header: p cnf 3953286 8928914
merged-size: 189023818
c ---- [ banner ] ------------------------------------------------------------
c
c KISSAT SAT Solver
c Copyright (c) 2019-2020 Armin Biere JKU Linz
c 
c Version 1.0.3 59813addcacc4d6fb880ebdd63685600475aa940
c gcc (Ubuntu 7.5.0-3ubuntu1~18.04) 7.5.0 -W -Wall -O3 -DNEMBEDDED -DNDEBUG -DNMETRICS -DNSTATISTICS
c Sun Feb 14 23:58:54 CET 2021 Linux cluster3 4.15.0-135-generic x86_64
c
c ---- [ parsing ] -----------------------------------------------------------
c
c opened and reading DIMACS file:
c 
c   /tmp/qbfcert_merged_cnf7337.cnf
c 
c parsed 'p cnf 3953286 8928914' header
c closing input after reading 189023818 bytes (180 MB)
c finished parsing after 3.16 seconds
c
c ---- [ solving ] -----------------------------------------------------------
c
c  seconds  reductions redundant irredundant
c          MB   restarts    trail        variables
c           level  conflicts   glue            remaining
c
c *  3.16 498 0  0  0   1   0 0% 0 8928912 511496 13%
c {  3.16 498 0  0  0   1   0 0% 0 8928912 511496 13%
c }  3.16 498 0  0  0   1   0 0% 0 8928912 511496 13%
c 0  3.16 498 0  0  0   1   0 0% 0 8928912 511496 13%
c
c ---- [ result ] ------------------------------------------------------------
c
s UNSATISFIABLE
c
c ---- [ profiling ] ---------------------------------------------------------
c
c           3.16   99.99 %  parse
c           0.00    0.00 %  search
c           0.00    0.00 %  focused
c           0.00    0.00 %  simplify
c =============================================
c           3.16  100.00 %  total
c
c ---- [ statistics ] --------------------------------------------------------
c
c conflicts:                                1                0.32 per second
c decisions:                                0                0.00 per conflict
c propagations:                       2952754           935423    per second
c
c ---- [ resources ] ---------------------------------------------------------
c
c maximum-resident-set-size:        521682944 bytes        498 MB
c process-time:                             3s               3.16 seconds
c
c ---- [ shutting down ] -----------------------------------------------------
c
c exit 20
*** qbfcert: VALID
c array.sh: end:      Thu Feb 18 09:53:16 CET 2021
